(set-info :status unsat)
(declare-codatatypes ((T 0)) ((
  (f0)
  (f1 (proj0f1 T) (proj1f1 T) (proj2f1 T) (proj3f1 T))
  (f2 (proj0f2 T))
  (f3 (proj0f3 T) (proj1f3 T))
  (f4 (proj0f4 T) (proj1f4 T) (proj2f4 T)))))
(assert (exists ((y4955 T) (y4937 T) (y4969 T) (y4968 T) (y4949 T) (y4948 T) (y4945 T) (y4962 T) (y4947 T) (y4960 T) (y4967 T) (y4966 T) (y4965 T) (y4964 T) (y4974 T) (y4939 T) (y4963 T) (y4977 T) (y4944 T) (y4961 T) (y4938 T) (y4975 T) (y4976 T) (y4946 T) (y4970 T) (y4971 T) (y4972 T) (y4973 T) (y4941 T) (y4978 T) (y4979 T) (y4936 T) (y4940 T) (y4943 T) (y4958 T) (y4959 T) (y4956 T) (y4957 T) (y4954 T) (y4942 T) (y4952 T) (y4953 T) (y4950 T) (y4951 T)) 
  (or 
    (and (= y4936 (f3 y4938 PLACEHOLDER)) (= y4938 (f2 y4939)) (= y4939 (f2 y4940)) (= y4940 (f4 y4936 y4941 (f1 PLACEHOLDER PLACEHOLDER PLACEHOLDER PLACEHOLDER))) (= y4941 (f3 y4936 PLACEHOLDER)) (= y4937 (f3 y4942 PLACEHOLDER)) (= y4942 (f2 y4943)) (= y4943 (f2 y4944)) (= y4944 (f4 y4937 y4945 (f1 PLACEHOLDER PLACEHOLDER PLACEHOLDER PLACEHOLDER))) (= y4945 (f3 y4937 PLACEHOLDER)) (distinct y4936 y4937)) 
    (and (= y4946 (f4 y4946 PLACEHOLDER PLACEHOLDER)) (= y4947 (f4 y4947 PLACEHOLDER PLACEHOLDER)) (distinct y4946 y4947)) 
    (and (= y4948 (f3 y4950 (f2 (f1 PLACEHOLDER PLACEHOLDER PLACEHOLDER PLACEHOLDER)))) (= y4950 (f3 y4951 (f1 PLACEHOLDER PLACEHOLDER PLACEHOLDER PLACEHOLDER))) (= y4951 (f2 y4948)) (= y4949 (f3 y4952 (f2 (f1 PLACEHOLDER PLACEHOLDER PLACEHOLDER PLACEHOLDER)))) (= y4952 (f3 y4953 (f1 PLACEHOLDER PLACEHOLDER PLACEHOLDER PLACEHOLDER))) (= y4953 (f2 y4949)) (distinct y4948 y4949)) 
    (and (= y4954 (f1 (f4 (f4 y4956 PLACEHOLDER PLACEHOLDER) (f4 PLACEHOLDER PLACEHOLDER (f3 PLACEHOLDER PLACEHOLDER)) (f3 (f1 PLACEHOLDER PLACEHOLDER PLACEHOLDER PLACEHOLDER) (f2 PLACEHOLDER))) PLACEHOLDER (f4 (f3 y4954 PLACEHOLDER) PLACEHOLDER (f4 PLACEHOLDER PLACEHOLDER PLACEHOLDER)) PLACEHOLDER)) (= y4956 (f1 y4954 PLACEHOLDER PLACEHOLDER PLACEHOLDER)) (= y4955 (f1 (f4 y4957 (f4 PLACEHOLDER PLACEHOLDER (f3 PLACEHOLDER PLACEHOLDER)) (f3 (f1 PLACEHOLDER PLACEHOLDER PLACEHOLDER PLACEHOLDER) (f2 PLACEHOLDER))) PLACEHOLDER (f4 (f3 y4955 PLACEHOLDER) PLACEHOLDER (f4 PLACEHOLDER PLACEHOLDER PLACEHOLDER)) PLACEHOLDER)) (= y4957 (f4 y4958 PLACEHOLDER PLACEHOLDER)) (= y4958 (f1 y4955 PLACEHOLDER PLACEHOLDER PLACEHOLDER)) (distinct y4954 y4955)) 
    (and (= y4959 (f1 y4961 (f3 PLACEHOLDER (f2 PLACEHOLDER)) PLACEHOLDER (f4 PLACEHOLDER (f1 PLACEHOLDER PLACEHOLDER PLACEHOLDER PLACEHOLDER) (f3 (f4 PLACEHOLDER PLACEHOLDER PLACEHOLDER) (f2 PLACEHOLDER))))) (= y4961 (f4 y4962 PLACEHOLDER (f1 (f1 PLACEHOLDER PLACEHOLDER PLACEHOLDER PLACEHOLDER) PLACEHOLDER (f4 PLACEHOLDER PLACEHOLDER PLACEHOLDER) PLACEHOLDER))) (= y4962 (f4 y4963 (f1 (f4 PLACEHOLDER PLACEHOLDER PLACEHOLDER) (f4 PLACEHOLDER PLACEHOLDER PLACEHOLDER) PLACEHOLDER (f1 PLACEHOLDER PLACEHOLDER PLACEHOLDER PLACEHOLDER)) (f4 PLACEHOLDER PLACEHOLDER (f1 PLACEHOLDER PLACEHOLDER PLACEHOLDER PLACEHOLDER)))) (= y4963 (f4 y4964 (f1 PLACEHOLDER PLACEHOLDER PLACEHOLDER PLACEHOLDER) PLACEHOLDER)) (= y4964 (f2 y4959)) (= y4960 (f1 y4965 (f3 PLACEHOLDER (f2 PLACEHOLDER)) PLACEHOLDER (f4 PLACEHOLDER (f1 PLACEHOLDER PLACEHOLDER PLACEHOLDER PLACEHOLDER) (f3 (f4 PLACEHOLDER PLACEHOLDER PLACEHOLDER) (f2 PLACEHOLDER))))) (= y4965 (f4 y4966 PLACEHOLDER (f1 (f1 PLACEHOLDER PLACEHOLDER PLACEHOLDER PLACEHOLDER) PLACEHOLDER (f4 PLACEHOLDER PLACEHOLDER PLACEHOLDER) PLACEHOLDER))) (= y4966 (f4 y4967 (f1 (f4 PLACEHOLDER PLACEHOLDER PLACEHOLDER) (f4 PLACEHOLDER PLACEHOLDER PLACEHOLDER) PLACEHOLDER (f1 PLACEHOLDER PLACEHOLDER PLACEHOLDER PLACEHOLDER)) (f4 PLACEHOLDER PLACEHOLDER (f1 PLACEHOLDER PLACEHOLDER PLACEHOLDER PLACEHOLDER)))) (= y4967 (f4 y4968 (f1 PLACEHOLDER PLACEHOLDER PLACEHOLDER PLACEHOLDER) PLACEHOLDER)) (= y4968 (f2 y4960)) (distinct y4959 y4960)) 
    (and (= y4969 (f3 y4969 PLACEHOLDER)) (= y4970 (f3 y4970 PLACEHOLDER)) (distinct y4969 y4970)) 
    (and (= y4971 (f3 (f2 y4971) (f1 PLACEHOLDER PLACEHOLDER PLACEHOLDER PLACEHOLDER))) (= y4972 (f3 y4973 (f1 PLACEHOLDER PLACEHOLDER PLACEHOLDER PLACEHOLDER))) (= y4973 (f2 y4972)) (distinct y4971 y4972)) 
    (and (= y4974 (f4 y4974 y4974 PLACEHOLDER)) (= y4975 (f4 y4975 y4975 PLACEHOLDER)) (distinct y4974 y4975)) 
    (and (= y4976 (f4 y4978 PLACEHOLDER (f2 PLACEHOLDER))) (= y4978 (f3 y4979 PLACEHOLDER)) (= y4979 (f4 y4976 PLACEHOLDER PLACEHOLDER)) (= y4977 (f4 (f3 (f4 y4977 PLACEHOLDER PLACEHOLDER) PLACEHOLDER) PLACEHOLDER (f2 PLACEHOLDER))) (distinct y4976 y4977)))))
(check-sat)
